c Standarized MaxSat Instance
c{
c "sha1sum": "cae84fc6204b6d9ba6a654daf1d5858df4d8b268",
c "nvars": 60,
c "ncls": 840,
c "nhards": 0,
c "nhard_len_stats":
c    { "min": 0, "max": 0, "ave": 0.00,
c      "stddev": 0.00 },
c "nsofts": 840,
c "nsoft_len_stats":
c    { "min": 2, "max": 2, "ave": 2.00,
c      "stddev": 0.00 },
c "nsoft_wts": 10,
c "soft_wt_stats":
c    { "min": 1, "max": 10, "ave": 5.61,
c      "stddev": 2.87 }
c}
c------------------------------------------------------------
c Generated after 1 tries
c Graph with 60 nodes and 420 edges, Max edges:1770
p wcnf 60 840 4713
9 1 8 0
9 -1 -8 0
4 1 9 0
4 -1 -9 0
8 1 10 0
8 -1 -10 0
8 1 13 0
8 -1 -13 0
10 1 19 0
10 -1 -19 0
2 1 22 0
2 -1 -22 0
4 1 23 0
4 -1 -23 0
8 1 33 0
8 -1 -33 0
3 1 35 0
3 -1 -35 0
6 1 39 0
6 -1 -39 0
5 1 41 0
5 -1 -41 0
7 1 45 0
7 -1 -45 0
4 1 51 0
4 -1 -51 0
6 1 52 0
6 -1 -52 0
10 1 59 0
10 -1 -59 0
10 2 5 0
10 -2 -5 0
7 2 12 0
7 -2 -12 0
8 2 13 0
8 -2 -13 0
2 2 15 0
2 -2 -15 0
7 2 22 0
7 -2 -22 0
1 2 24 0
1 -2 -24 0
3 2 29 0
3 -2 -29 0
2 2 34 0
2 -2 -34 0
9 2 38 0
9 -2 -38 0
2 2 45 0
2 -2 -45 0
5 2 46 0
5 -2 -46 0
2 2 48 0
2 -2 -48 0
2 2 49 0
2 -2 -49 0
10 2 57 0
10 -2 -57 0
3 3 6 0
3 -3 -6 0
6 3 7 0
6 -3 -7 0
9 3 24 0
9 -3 -24 0
7 3 25 0
7 -3 -25 0
3 3 27 0
3 -3 -27 0
7 3 32 0
7 -3 -32 0
6 3 35 0
6 -3 -35 0
5 3 36 0
5 -3 -36 0
10 3 40 0
10 -3 -40 0
3 3 43 0
3 -3 -43 0
8 3 44 0
8 -3 -44 0
6 3 45 0
6 -3 -45 0
8 3 49 0
8 -3 -49 0
5 3 56 0
5 -3 -56 0
9 3 60 0
9 -3 -60 0
3 4 18 0
3 -4 -18 0
4 4 43 0
4 -4 -43 0
9 4 46 0
9 -4 -46 0
10 4 49 0
10 -4 -49 0
1 4 51 0
1 -4 -51 0
10 4 53 0
10 -4 -53 0
6 4 55 0
6 -4 -55 0
1 4 59 0
1 -4 -59 0
2 5 7 0
2 -5 -7 0
7 5 9 0
7 -5 -9 0
9 5 12 0
9 -5 -12 0
4 5 13 0
4 -5 -13 0
1 5 24 0
1 -5 -24 0
1 5 30 0
1 -5 -30 0
5 5 31 0
5 -5 -31 0
1 5 35 0
1 -5 -35 0
3 5 38 0
3 -5 -38 0
10 5 41 0
10 -5 -41 0
10 5 42 0
10 -5 -42 0
9 5 54 0
9 -5 -54 0
3 5 60 0
3 -5 -60 0
6 6 15 0
6 -6 -15 0
4 6 20 0
4 -6 -20 0
8 6 23 0
8 -6 -23 0
6 6 27 0
6 -6 -27 0
7 6 31 0
7 -6 -31 0
6 6 34 0
6 -6 -34 0
1 6 37 0
1 -6 -37 0
5 6 44 0
5 -6 -44 0
10 6 50 0
10 -6 -50 0
10 6 55 0
10 -6 -55 0
8 6 56 0
8 -6 -56 0
3 6 58 0
3 -6 -58 0
8 6 60 0
8 -6 -60 0
7 7 11 0
7 -7 -11 0
4 7 15 0
4 -7 -15 0
7 7 21 0
7 -7 -21 0
2 7 25 0
2 -7 -25 0
5 7 29 0
5 -7 -29 0
9 7 34 0
9 -7 -34 0
9 7 37 0
9 -7 -37 0
4 7 38 0
4 -7 -38 0
3 7 39 0
3 -7 -39 0
9 7 54 0
9 -7 -54 0
4 7 57 0
4 -7 -57 0
7 7 58 0
7 -7 -58 0
10 8 10 0
10 -8 -10 0
6 8 14 0
6 -8 -14 0
7 8 15 0
7 -8 -15 0
9 8 23 0
9 -8 -23 0
5 8 25 0
5 -8 -25 0
10 8 27 0
10 -8 -27 0
4 8 29 0
4 -8 -29 0
9 8 32 0
9 -8 -32 0
7 8 36 0
7 -8 -36 0
10 8 38 0
10 -8 -38 0
5 8 42 0
5 -8 -42 0
3 8 43 0
3 -8 -43 0
10 8 44 0
10 -8 -44 0
10 8 49 0
10 -8 -49 0
2 8 54 0
2 -8 -54 0
9 8 57 0
9 -8 -57 0
7 8 59 0
7 -8 -59 0
5 9 10 0
5 -9 -10 0
7 9 12 0
7 -9 -12 0
3 9 16 0
3 -9 -16 0
8 9 20 0
8 -9 -20 0
4 9 24 0
4 -9 -24 0
5 9 29 0
5 -9 -29 0
3 9 35 0
3 -9 -35 0
2 9 41 0
2 -9 -41 0
3 9 43 0
3 -9 -43 0
6 9 51 0
6 -9 -51 0
5 9 59 0
5 -9 -59 0
2 10 15 0
2 -10 -15 0
10 10 19 0
10 -10 -19 0
2 10 20 0
2 -10 -20 0
2 10 24 0
2 -10 -24 0
5 10 33 0
5 -10 -33 0
8 10 38 0
8 -10 -38 0
10 10 50 0
10 -10 -50 0
10 10 54 0
10 -10 -54 0
7 10 57 0
7 -10 -57 0
4 11 16 0
4 -11 -16 0
8 11 21 0
8 -11 -21 0
4 11 23 0
4 -11 -23 0
3 11 30 0
3 -11 -30 0
3 11 35 0
3 -11 -35 0
6 11 38 0
6 -11 -38 0
3 11 51 0
3 -11 -51 0
2 12 15 0
2 -12 -15 0
8 12 17 0
8 -12 -17 0
2 12 20 0
2 -12 -20 0
8 12 32 0
8 -12 -32 0
2 12 36 0
2 -12 -36 0
8 12 38 0
8 -12 -38 0
1 12 40 0
1 -12 -40 0
10 12 41 0
10 -12 -41 0
1 12 46 0
1 -12 -46 0
6 12 47 0
6 -12 -47 0
2 12 50 0
2 -12 -50 0
3 12 56 0
3 -12 -56 0
8 12 60 0
8 -12 -60 0
8 13 16 0
8 -13 -16 0
7 13 27 0
7 -13 -27 0
10 13 29 0
10 -13 -29 0
7 13 35 0
7 -13 -35 0
8 13 36 0
8 -13 -36 0
1 13 37 0
1 -13 -37 0
2 13 57 0
2 -13 -57 0
6 14 16 0
6 -14 -16 0
1 14 18 0
1 -14 -18 0
1 14 20 0
1 -14 -20 0
3 14 23 0
3 -14 -23 0
5 14 24 0
5 -14 -24 0
9 14 26 0
9 -14 -26 0
6 14 29 0
6 -14 -29 0
8 14 30 0
8 -14 -30 0
1 14 31 0
1 -14 -31 0
2 14 34 0
2 -14 -34 0
10 14 40 0
10 -14 -40 0
3 14 44 0
3 -14 -44 0
9 14 51 0
9 -14 -51 0
2 14 56 0
2 -14 -56 0
10 14 59 0
10 -14 -59 0
1 15 17 0
1 -15 -17 0
9 15 20 0
9 -15 -20 0
1 15 26 0
1 -15 -26 0
1 15 30 0
1 -15 -30 0
10 15 34 0
10 -15 -34 0
6 15 36 0
6 -15 -36 0
2 15 37 0
2 -15 -37 0
2 15 39 0
2 -15 -39 0
4 15 47 0
4 -15 -47 0
10 15 49 0
10 -15 -49 0
9 15 52 0
9 -15 -52 0
4 15 57 0
4 -15 -57 0
6 15 58 0
6 -15 -58 0
6 16 20 0
6 -16 -20 0
5 16 21 0
5 -16 -21 0
7 16 22 0
7 -16 -22 0
1 16 32 0
1 -16 -32 0
6 16 35 0
6 -16 -35 0
8 16 38 0
8 -16 -38 0
4 16 44 0
4 -16 -44 0
10 16 47 0
10 -16 -47 0
6 16 50 0
6 -16 -50 0
9 16 51 0
9 -16 -51 0
8 16 55 0
8 -16 -55 0
7 16 59 0
7 -16 -59 0
1 17 22 0
1 -17 -22 0
8 17 25 0
8 -17 -25 0
9 17 34 0
9 -17 -34 0
10 17 37 0
10 -17 -37 0
9 17 48 0
9 -17 -48 0
9 17 50 0
9 -17 -50 0
10 18 19 0
10 -18 -19 0
8 18 24 0
8 -18 -24 0
10 18 26 0
10 -18 -26 0
10 18 32 0
10 -18 -32 0
7 18 35 0
7 -18 -35 0
5 18 47 0
5 -18 -47 0
2 18 54 0
2 -18 -54 0
9 18 55 0
9 -18 -55 0
9 18 58 0
9 -18 -58 0
1 18 60 0
1 -18 -60 0
7 19 23 0
7 -19 -23 0
3 19 24 0
3 -19 -24 0
7 19 33 0
7 -19 -33 0
3 19 39 0
3 -19 -39 0
8 19 47 0
8 -19 -47 0
4 19 51 0
4 -19 -51 0
4 19 56 0
4 -19 -56 0
3 20 24 0
3 -20 -24 0
1 20 27 0
1 -20 -27 0
7 20 28 0
7 -20 -28 0
3 20 33 0
3 -20 -33 0
7 20 45 0
7 -20 -45 0
6 20 48 0
6 -20 -48 0
10 20 49 0
10 -20 -49 0
3 20 50 0
3 -20 -50 0
6 20 53 0
6 -20 -53 0
8 20 54 0
8 -20 -54 0
2 20 60 0
2 -20 -60 0
5 21 23 0
5 -21 -23 0
6 21 25 0
6 -21 -25 0
10 21 26 0
10 -21 -26 0
5 21 28 0
5 -21 -28 0
4 21 38 0
4 -21 -38 0
9 21 40 0
9 -21 -40 0
5 21 41 0
5 -21 -41 0
1 21 44 0
1 -21 -44 0
4 21 47 0
4 -21 -47 0
6 21 51 0
6 -21 -51 0
9 21 60 0
9 -21 -60 0
3 22 25 0
3 -22 -25 0
7 22 26 0
7 -22 -26 0
5 22 27 0
5 -22 -27 0
5 22 29 0
5 -22 -29 0
4 22 31 0
4 -22 -31 0
8 22 39 0
8 -22 -39 0
2 22 41 0
2 -22 -41 0
7 22 44 0
7 -22 -44 0
1 22 55 0
1 -22 -55 0
5 22 56 0
5 -22 -56 0
7 22 57 0
7 -22 -57 0
7 23 25 0
7 -23 -25 0
7 23 27 0
7 -23 -27 0
4 23 30 0
4 -23 -30 0
2 23 32 0
2 -23 -32 0
7 23 38 0
7 -23 -38 0
7 23 43 0
7 -23 -43 0
8 23 44 0
8 -23 -44 0
4 23 51 0
4 -23 -51 0
8 23 52 0
8 -23 -52 0
3 23 53 0
3 -23 -53 0
10 23 57 0
10 -23 -57 0
7 24 27 0
7 -24 -27 0
7 24 28 0
7 -24 -28 0
3 24 34 0
3 -24 -34 0
6 24 39 0
6 -24 -39 0
1 24 46 0
1 -24 -46 0
3 24 49 0
3 -24 -49 0
9 24 60 0
9 -24 -60 0
7 25 27 0
7 -25 -27 0
1 25 28 0
1 -25 -28 0
2 25 31 0
2 -25 -31 0
4 25 33 0
4 -25 -33 0
6 25 34 0
6 -25 -34 0
6 25 46 0
6 -25 -46 0
7 25 47 0
7 -25 -47 0
3 25 53 0
3 -25 -53 0
8 25 59 0
8 -25 -59 0
3 26 29 0
3 -26 -29 0
4 26 33 0
4 -26 -33 0
2 26 41 0
2 -26 -41 0
10 26 42 0
10 -26 -42 0
1 26 48 0
1 -26 -48 0
9 26 52 0
9 -26 -52 0
4 26 53 0
4 -26 -53 0
2 27 28 0
2 -27 -28 0
5 27 31 0
5 -27 -31 0
10 27 39 0
10 -27 -39 0
10 27 40 0
10 -27 -40 0
8 27 41 0
8 -27 -41 0
7 27 45 0
7 -27 -45 0
2 27 47 0
2 -27 -47 0
7 27 52 0
7 -27 -52 0
4 27 55 0
4 -27 -55 0
8 27 58 0
8 -27 -58 0
10 27 60 0
10 -27 -60 0
10 28 31 0
10 -28 -31 0
9 28 32 0
9 -28 -32 0
3 28 39 0
3 -28 -39 0
8 28 41 0
8 -28 -41 0
6 28 44 0
6 -28 -44 0
3 28 45 0
3 -28 -45 0
10 28 46 0
10 -28 -46 0
10 28 59 0
10 -28 -59 0
9 29 42 0
9 -29 -42 0
5 29 43 0
5 -29 -43 0
6 29 45 0
6 -29 -45 0
2 29 48 0
2 -29 -48 0
3 29 50 0
3 -29 -50 0
9 29 51 0
9 -29 -51 0
5 29 54 0
5 -29 -54 0
5 29 59 0
5 -29 -59 0
9 30 33 0
9 -30 -33 0
5 30 35 0
5 -30 -35 0
3 30 40 0
3 -30 -40 0
2 30 42 0
2 -30 -42 0
7 30 45 0
7 -30 -45 0
8 30 52 0
8 -30 -52 0
2 30 58 0
2 -30 -58 0
7 31 33 0
7 -31 -33 0
5 31 35 0
5 -31 -35 0
9 31 37 0
9 -31 -37 0
8 31 41 0
8 -31 -41 0
2 31 45 0
2 -31 -45 0
3 31 49 0
3 -31 -49 0
5 31 51 0
5 -31 -51 0
2 31 56 0
2 -31 -56 0
2 31 58 0
2 -31 -58 0
4 31 59 0
4 -31 -59 0
4 32 42 0
4 -32 -42 0
10 32 43 0
10 -32 -43 0
10 32 44 0
10 -32 -44 0
7 32 45 0
7 -32 -45 0
9 32 51 0
9 -32 -51 0
9 32 57 0
9 -32 -57 0
5 33 38 0
5 -33 -38 0
4 33 43 0
4 -33 -43 0
4 33 48 0
4 -33 -48 0
7 33 55 0
7 -33 -55 0
7 33 59 0
7 -33 -59 0
3 34 39 0
3 -34 -39 0
2 34 58 0
2 -34 -58 0
1 34 59 0
1 -34 -59 0
2 34 60 0
2 -34 -60 0
7 35 37 0
7 -35 -37 0
4 35 44 0
4 -35 -44 0
3 35 50 0
3 -35 -50 0
4 35 60 0
4 -35 -60 0
1 36 37 0
1 -36 -37 0
5 36 38 0
5 -36 -38 0
10 36 40 0
10 -36 -40 0
6 36 42 0
6 -36 -42 0
3 36 45 0
3 -36 -45 0
7 36 51 0
7 -36 -51 0
8 36 54 0
8 -36 -54 0
5 36 58 0
5 -36 -58 0
2 36 59 0
2 -36 -59 0
9 37 39 0
9 -37 -39 0
7 37 40 0
7 -37 -40 0
6 37 41 0
6 -37 -41 0
3 37 51 0
3 -37 -51 0
6 37 52 0
6 -37 -52 0
5 37 54 0
5 -37 -54 0
9 37 56 0
9 -37 -56 0
4 37 57 0
4 -37 -57 0
3 37 58 0
3 -37 -58 0
4 38 44 0
4 -38 -44 0
8 38 46 0
8 -38 -46 0
7 38 50 0
7 -38 -50 0
10 38 55 0
10 -38 -55 0
4 39 42 0
4 -39 -42 0
9 39 45 0
9 -39 -45 0
2 39 47 0
2 -39 -47 0
5 39 54 0
5 -39 -54 0
1 39 56 0
1 -39 -56 0
8 40 43 0
8 -40 -43 0
8 40 45 0
8 -40 -45 0
3 40 47 0
3 -40 -47 0
2 40 48 0
2 -40 -48 0
9 40 56 0
9 -40 -56 0
8 40 58 0
8 -40 -58 0
1 41 46 0
1 -41 -46 0
5 41 48 0
5 -41 -48 0
10 41 50 0
10 -41 -50 0
8 41 51 0
8 -41 -51 0
3 41 53 0
3 -41 -53 0
5 42 46 0
5 -42 -46 0
9 42 49 0
9 -42 -49 0
1 42 50 0
1 -42 -50 0
1 42 51 0
1 -42 -51 0
4 42 52 0
4 -42 -52 0
4 42 54 0
4 -42 -54 0
7 42 55 0
7 -42 -55 0
9 42 58 0
9 -42 -58 0
2 43 47 0
2 -43 -47 0
1 43 48 0
1 -43 -48 0
1 43 55 0
1 -43 -55 0
5 43 58 0
5 -43 -58 0
8 44 46 0
8 -44 -46 0
7 44 55 0
7 -44 -55 0
5 44 57 0
5 -44 -57 0
2 45 55 0
2 -45 -55 0
6 45 56 0
6 -45 -56 0
6 46 51 0
6 -46 -51 0
6 46 53 0
6 -46 -53 0
6 46 56 0
6 -46 -56 0
4 46 60 0
4 -46 -60 0
4 47 55 0
4 -47 -55 0
9 48 52 0
9 -48 -52 0
5 48 60 0
5 -48 -60 0
2 49 55 0
2 -49 -55 0
7 49 56 0
7 -49 -56 0
6 50 54 0
6 -50 -54 0
7 50 56 0
7 -50 -56 0
6 52 58 0
6 -52 -58 0
3 53 56 0
3 -53 -56 0
9 53 60 0
9 -53 -60 0
1 54 57 0
1 -54 -57 0
1 55 59 0
1 -55 -59 0
10 55 60 0
10 -55 -60 0
2 58 59 0
2 -58 -59 0
